55463
35, 24, 50, 20, 37, 7, 40, 51, 13, 43, 3, 6, 55, 28, 26, 53, 34, 54, 47, 4, 30, 18, 12, 9, 16, 39, 46, 36, 15, 25, 31, 27, 1, 33, 42, 11, 45, 52, 2, 14, 22, 10, 29, 21, 23, 17, 48, 49, 19, 44, 38, 8, 32, 41, 5
